(set-logic ALL)
(declare-fun var0 () String)
(assert (str.in_re var0 (re.++ (re.union (re.union (str.to_re "00") (str.to_re "11")) (re.union (str.to_re "22") (str.to_re "3"))) (re.++ (re.+ (re.+ (str.to_re "44"))) (re.++ (re.union (re.* (str.to_re "555")) (re.* (str.to_re "66"))) (re.++ (re.union (re.+ (str.to_re "7")) (re.+ (str.to_re "88"))) (re.++ (re.* (re.* (str.to_re "999"))) (re.++ (re.union (re.union (str.to_re "aaa") (str.to_re "bbb")) (re.union (str.to_re "ccc") (str.to_re "ddd"))) (re.++ (re.* (re.* (str.to_re "ee"))) (re.++ (re.union (re.+ (str.to_re "ff")) (re.+ (str.to_re "gg"))) (re.++ (re.+ (re.* (str.to_re "hhh"))) (re.++ (re.+ (re.* (str.to_re "iii"))) (re.++ (re.union (re.* (str.to_re "j")) (re.* (str.to_re "kk"))) (re.++ (re.union (re.+ (str.to_re "l")) (re.+ (str.to_re "mmm"))) (re.++ (re.* (re.union (str.to_re "n") (str.to_re "oo"))) (re.++ (re.* (re.union (str.to_re "p") (str.to_re "q"))) (re.++ (re.+ (re.+ (str.to_re "rrr"))) (re.++ (re.+ (re.+ (str.to_re "sss"))) (re.* (re.union (str.to_re "t") (str.to_re "uu")))))))))))))))))))))
(check-sat)